(set-logic HORN)
(set-info :source |
    Benchmark: Horn constraint system (5 clauses, 4 relation symbols)
    Generated by Eldarica (http://lara.epfl.ch/w/eldarica)
    Output by Princess (http://www.philipp.ruemmer.org/princess.shtml)
|)
(set-info :status sat)
(declare-fun predr3_1 (Int Int Int Int Int Int Int Int Int Int Int Int Int Int Int Int Int Int Int Int Int Int Int Int) Bool)
(declare-fun predr17_2 (Int Int Int Int Int Int Int Int Int Int Int Int Int Int Int Int Int Int Int Int Int Int Int Int) Bool)
(declare-fun predr12_3 (Int Int Int Int Int Int Int Int Int Int Int Int Int Int Int Int Int Int Int Int Int Int Int Int) Bool)
(declare-fun predr11_4 (Int Int Int Int Int Int Int Int Int Int Int Int Int Int Int Int Int Int Int Int Int Int Int Int) Bool)
(assert (forall ((var0 Int)) (forall ((var1 Int)) (forall ((var2 Int)) (forall ((var3 Int)) (forall ((var4 Int)) (forall ((var5 Int)) (forall ((var6 Int)) (forall ((var7 Int)) (forall ((var8 Int)) (forall ((var9 Int)) (forall ((var10 Int)) (forall ((var11 Int)) (forall ((var12 Int)) (forall ((var13 Int)) (forall ((var14 Int)) (forall ((var15 Int)) (forall ((var16 Int)) (forall ((var17 Int)) (forall ((var18 Int)) (forall ((var19 Int)) (forall ((var20 Int)) (forall ((var21 Int)) (forall ((var22 Int)) (forall ((var23 Int)) (not (and (not (= 0 var11 ) ) (predr3_1 var23 var22 var21 var20 var19 var18 var17 var16 var15 var14 var13 var12 var11 var10 var9 var8 var7 var6 var5 var4 var3 var2 var1 var0 ) ) ) ) ) ) ) ) ) ) ) ) ) ) ) ) ) ) ) ) ) ) ) ) ) ) ) )
(assert (forall ((var0 Int)) (forall ((var1 Int)) (forall ((var2 Int)) (forall ((var3 Int)) (forall ((var4 Int)) (forall ((var5 Int)) (forall ((var6 Int)) (forall ((var7 Int)) (forall ((var8 Int)) (forall ((var9 Int)) (forall ((var10 Int)) (forall ((var11 Int)) (forall ((var12 Int)) (forall ((var13 Int)) (forall ((var14 Int)) (forall ((var15 Int)) (forall ((var16 Int)) (forall ((var17 Int)) (forall ((var18 Int)) (forall ((var19 Int)) (forall ((var20 Int)) (forall ((var21 Int)) (forall ((var22 Int)) (not (and (and (<= 0 (+ (+ (* (- 1) var9 ) var1 ) (* (- 1) 1 ) ) ) (<= 0 (+ (+ var8 (* (- 1) var3 ) ) (* (- 1) 1 ) ) ) ) (and (predr17_2 var22 var21 var20 var19 var18 var17 var16 var15 var14 var13 var12 var11 var10 var9 var8 (+ var3 1 ) var7 var6 var5 var4 var3 var2 var1 var0 ) (not (predr3_1 var22 var21 var20 var19 var18 var17 var16 var15 var14 var13 var12 var11 var10 var9 var8 (+ var3 1 ) var7 var6 var5 var4 (+ var3 1 ) var2 var1 var0 ) ) ) ) ) ) ) ) ) ) ) ) ) ) ) ) ) ) ) ) ) ) ) ) ) ) ) ) )
(assert (forall ((var0 Int)) (forall ((var1 Int)) (forall ((var2 Int)) (forall ((var3 Int)) (forall ((var4 Int)) (forall ((var5 Int)) (forall ((var6 Int)) (forall ((var7 Int)) (forall ((var8 Int)) (forall ((var9 Int)) (forall ((var10 Int)) (forall ((var11 Int)) (forall ((var12 Int)) (forall ((var13 Int)) (forall ((var14 Int)) (forall ((var15 Int)) (forall ((var16 Int)) (forall ((var17 Int)) (forall ((var18 Int)) (forall ((var19 Int)) (forall ((var20 Int)) (not (and (and (<= 0 (+ (+ var6 (* (- 1) var3 ) ) (* (- 2) 1 ) ) ) (<= 0 (+ (+ var4 (* (- 1) var3 ) ) (* (- 1) 1 ) ) ) ) (and (predr12_3 var20 var19 var18 var17 var16 var15 var14 var13 var12 var11 var10 var9 var8 var2 var7 var6 var5 (+ var3 1 ) (+ var3 1 ) var4 var3 var2 var1 var0 ) (not (predr17_2 var20 var19 var18 var17 var16 var15 var14 var13 var12 var11 var10 var9 var8 var2 var7 var6 var5 (+ var3 1 ) (+ var3 1 ) var4 (+ var3 1 ) var1 var1 var0 ) ) ) ) ) ) ) ) ) ) ) ) ) ) ) ) ) ) ) ) ) ) ) ) ) ) )
(assert (forall ((var0 Int)) (forall ((var1 Int)) (forall ((var2 Int)) (forall ((var3 Int)) (forall ((var4 Int)) (forall ((var5 Int)) (forall ((var6 Int)) (forall ((var7 Int)) (forall ((var8 Int)) (forall ((var9 Int)) (forall ((var10 Int)) (forall ((var11 Int)) (forall ((var12 Int)) (forall ((var13 Int)) (forall ((var14 Int)) (forall ((var15 Int)) (forall ((var16 Int)) (forall ((var17 Int)) (forall ((var18 Int)) (forall ((var19 Int)) (forall ((var20 Int)) (forall ((var21 Int)) (not (and (and (<= 0 (+ (+ var6 (* (- 1) var2 ) ) (* (- 2) 1 ) ) ) (<= 0 (+ (+ var3 (* (- 1) var2 ) ) (* (- 2) 1 ) ) ) ) (and (predr11_4 var21 var20 var19 var18 var17 var16 var15 var14 var13 var12 var11 var10 var9 var8 var7 var6 var5 var4 var3 (+ var2 1 ) var2 var1 var1 var0 ) (not (predr12_3 var21 var20 var19 var18 var17 var16 var15 var14 var13 var12 var11 var10 var9 var1 var7 var6 var5 var4 var3 (+ var2 1 ) (+ var2 1 ) var1 var1 var0 ) ) ) ) ) ) ) ) ) ) ) ) ) ) ) ) ) ) ) ) ) ) ) ) ) ) ) )
(assert (forall ((var0 Int)) (forall ((var1 Int)) (forall ((var2 Int)) (forall ((var3 Int)) (forall ((var4 Int)) (forall ((var5 Int)) (forall ((var6 Int)) (forall ((var7 Int)) (forall ((var8 Int)) (forall ((var9 Int)) (forall ((var10 Int)) (forall ((var11 Int)) (forall ((var12 Int)) (forall ((var13 Int)) (forall ((var14 Int)) (forall ((var15 Int)) (forall ((var16 Int)) (not (and (and (and (<= 0 (+ var4 (* (- 1) var3 ) ) ) (<= 0 (+ (+ var3 (* (- 1) var2 ) ) (* (- 2) 1 ) ) ) ) (<= 0 (+ var2 (* (- 2) 1 ) ) ) ) (not (predr11_4 var16 var15 var14 var13 var12 var11 var10 var9 var8 var7 var6 var5 0 var1 var3 var4 var0 var3 (+ var2 1 ) var2 1 var1 var1 var0 ) ) ) ) ) ) ) ) ) ) ) ) ) ) ) ) ) ) ) ) ) )
(check-sat)
